\* Slave_solver *\
Minimize
OBJ: - 0.5 S_00 - S_01 - 0.33333333 S_02 - S_03 - 0.5 S_04 - 0.5 S_05 - S_06
 - S_07 - S_08 - 0.5 S_09 - S_11
Subject To
_C1: 13 S_00 + 16 S_01 + 8 S_02 + 18 S_03 + 11 S_04 + 15 S_05 + 19 S_06
 + 17 S_07 + 22 S_08 + 9 S_09 + 7 S_10 + 21 S_11 <= 25
Bounds
 0 <= S_00
 0 <= S_01
 0 <= S_02
 0 <= S_03
 0 <= S_04
 0 <= S_05
 0 <= S_06
 0 <= S_07
 0 <= S_08
 0 <= S_09
 0 <= S_10
 0 <= S_11
Generals
S_00
S_01
S_02
S_03
S_04
S_05
S_06
S_07
S_08
S_09
S_10
S_11
End
